c 197_3_checker_5cl.cnf
c
c field = 197
c formula set type = 3_checker_5cl
c
p cnf 5 12
390 
394 
396 
-399 
-400 
391 
395 
397 
-398 
-401 
394 
396 
398 
-391 
-400 
395 
397 
399 
-390 
-401 
302 
332 
362 
-423 
-272 
303 
333 
363 
-422 
-273 
332 
362 
422 
-303 
-272 
333 
363 
423 
-302 
-273 
308 
336 
364 
-421 
-280 
309 
337 
365 
-420 
-281 
336 
364 
420 
-309 
-280 
337 
365 
421 
-308 
-281 
